data/solutions/recovery/wellformed/moderate/binding/wellformed_moderate_instance89/20.sol
Elapsed time: 0.02
Upper bound: 9804.0
Planning weighted value: 572517.0
C[0]=9804.0
C[1]=8066.0
C[2]=7752.0
C[3]=7688.0
C[4]=7008.0
C[5]=3045.0
y[0]=0
y[1]=2
y[2]=0
y[3]=0
y[4]=0
y[5]=4
y[6]=5
y[7]=2
y[8]=3
y[9]=5
y[10]=0
y[11]=3
y[12]=0
y[13]=4
y[14]=3
y[15]=4
y[16]=2
y[17]=0
y[18]=3
y[19]=1
y[20]=1
y[21]=3
y[22]=0
y[23]=2
y[24]=4
y[25]=5
y[26]=0
y[27]=2
y[28]=0
y[29]=3
y[30]=4
y[31]=1
y[32]=0
y[33]=2
y[34]=2
y[35]=1
y[36]=1
y[37]=4
y[38]=3
y[39]=2
y[40]=1
y[41]=1
